minimize
obj: 1 x_1_ + 1 x_2_ + 1 x_3_ + 1 x_4_ + 1 x_5_
subject to
c1_1: 1 t_1,1_ - 1 y_1,1_ <= 0
c2_1: 1 t_1,2_ - 1 y_1,1_ - 1 y_1,2_ <= 0
c3_1: 1 t_1,3_ - 1 y_1,2_ - 1 y_1,3_ <= 0
c4_1: 1 t_1,4_ - 1 y_1,3_ - 1 y_1,4_ <= 0
c5_1: 1 t_1,5_ - 1 y_1,4_ - 1 y_1,5_ <= 0
c6_1: 1 t_1,6_ - 1 y_1,5_ - 1 y_1,6_ <= 0
c7_1: 1 t_1,7_ - 1 y_1,6_ - 1 y_1,7_ <= 0
c8_1: 1 t_1,8_ - 1 y_1,7_ - 1 y_1,8_ <= 0
c9_1: 1 t_1,9_ - 1 y_1,8_ - 1 y_1,9_ <= 0
c10_1: 1 t_1,10_ - 1 y_1,9_ <= 0
c11_1: 1 t_2,1_ - 1 y_2,1_ <= 0
c12_1: 1 t_2,2_ - 1 y_2,1_ - 1 y_2,2_ <= 0
c13_1: 1 t_2,3_ - 1 y_2,2_ - 1 y_2,3_ <= 0
c14_1: 1 t_2,4_ - 1 y_2,3_ - 1 y_2,4_ <= 0
c15_1: 1 t_2,5_ - 1 y_2,4_ - 1 y_2,5_ <= 0
c16: 1 t_2,6_ - 1 y_2,5_ - 1 y_2,6_ <= 0
c17: 1 t_2,7_ - 1 y_2,6_ - 1 y_2,7_ <= 0
c18: 1 t_2,8_ - 1 y_2,7_ - 1 y_2,8_ <= 0
c19: 1 t_2,9_ - 1 y_2,8_ - 1 y_2,9_ <= 0
c20: 1 t_2,10_ - 1 y_2,9_ <= 0
c21: 1 t_3,1_ - 1 y_3,1_ <= 0
c22: 1 t_3,2_ - 1 y_3,1_ - 1 y_3,2_ <= 0
c23: 1 t_3,3_ - 1 y_3,2_ - 1 y_3,3_ <= 0
c24: 1 t_3,4_ - 1 y_3,3_ - 1 y_3,4_ <= 0
c25: 1 t_3,5_ - 1 y_3,4_ - 1 y_3,5_ <= 0
c26: 1 t_3,6_ - 1 y_3,5_ - 1 y_3,6_ <= 0
c27: 1 t_3,7_ - 1 y_3,6_ - 1 y_3,7_ <= 0
c28: 1 t_3,8_ - 1 y_3,7_ - 1 y_3,8_ <= 0
c29: 1 t_3,9_ - 1 y_3,8_ - 1 y_3,9_ <= 0
c30: 1 t_3,10_ - 1 y_3,9_ <= 0
c31: 1 t_4,1_ - 1 y_4,1_ <= 0
c32: 1 t_4,2_ - 1 y_4,1_ - 1 y_4,2_ <= 0
c33: 1 t_4,3_ - 1 y_4,2_ - 1 y_4,3_ <= 0
c34: 1 t_4,4_ - 1 y_4,3_ - 1 y_4,4_ <= 0
c35: 1 t_4,5_ - 1 y_4,4_ - 1 y_4,5_ <= 0
c36: 1 t_4,6_ - 1 y_4,5_ - 1 y_4,6_ <= 0
c37: 1 t_4,7_ - 1 y_4,6_ - 1 y_4,7_ <= 0
c38: 1 t_4,8_ - 1 y_4,7_ - 1 y_4,8_ <= 0
c39: 1 t_4,9_ - 1 y_4,8_ - 1 y_4,9_ <= 0
c40: 1 t_4,10_ - 1 y_4,9_ <= 0
c41: 1 t_5,1_ - 1 y_5,1_ <= 0
c42: 1 t_5,2_ - 1 y_5,1_ - 1 y_5,2_ <= 0
c43: 1 t_5,3_ - 1 y_5,2_ - 1 y_5,3_ <= 0
c44: 1 t_5,4_ - 1 y_5,3_ - 1 y_5,4_ <= 0
c45: 1 t_5,5_ - 1 y_5,4_ - 1 y_5,5_ <= 0
c46: 1 t_5,6_ - 1 y_5,5_ - 1 y_5,6_ <= 0
c47: 1 t_5,7_ - 1 y_5,6_ - 1 y_5,7_ <= 0
c48: 1 t_5,8_ - 1 y_5,7_ - 1 y_5,8_ <= 0
c49: 1 t_5,9_ - 1 y_5,8_ - 1 y_5,9_ <= 0
c50: 1 t_5,10_ - 1 y_5,9_ <= 0
c51: 4 t_1,1_ + 4 t_2,1_ + 4 t_3,1_ + 4 t_4,1_ + 4 t_5,1_ + 2.4197530864197523 t_1,2_ + 2.4197530864197523 t_2,2_ + 2.4197530864197523 t_3,2_ + 2.4197530864197523 t_4,2_ + 2.4197530864197523 t_5,2_ + 1.234567901234568 t_1,3_ + 1.234567901234568 t_2,3_ + 1.234567901234568 t_3,3_ + 1.234567901234568 t_4,3_ + 1.234567901234568 t_5,3_ + 0.4444444444444447 t_1,4_ + 0.4444444444444447 t_2,4_ + 0.4444444444444447 t_3,4_ + 0.4444444444444447 t_4,4_ + 0.4444444444444447 t_5,4_ + 0.04938271604938276 t_1,5_ + 0.04938271604938276 t_2,5_ + 0.04938271604938276 t_3,5_ + 0.04938271604938276 t_4,5_ + 0.04938271604938276 t_5,5_ + 0.04938271604938276 t_1,6_ + 0.04938271604938276 t_2,6_ + 0.04938271604938276 t_3,6_ + 0.04938271604938276 t_4,6_ + 0.04938271604938276 t_5,6_ + 0.44444444444444425 t_1,7_ + 0.44444444444444425 t_2,7_ + 0.44444444444444425 t_3,7_ + 0.44444444444444425 t_4,7_ + 0.44444444444444425 t_5,7_ + 1.234567901234568 t_1,8_ + 1.234567901234568 t_2,8_ + 1.234567901234568 t_3,8_ + 1.234567901234568 t_4,8_ + 1.234567901234568 t_5,8_ + 2.4197530864197523 t_1,9_ + 2.4197530864197523 t_2,9_ + 2.4197530864197523 t_3,9_ + 2.4197530864197523 t_4,9_ + 2.4197530864197523 t_5,9_ + 4 t_1,10_ + 4 t_2,10_ + 4 t_3,10_ + 4 t_4,10_ + 4 t_5,10_ <= 1
c1: 1 y_1,1_ + 1 y_1,2_ + 1 y_1,3_ + 1 y_1,4_ + 1 y_1,5_ + 1 y_1,6_ + 1 y_1,7_ + 1 y_1,8_ + 1 y_1,9_ = 1
c2: 1 t_1,1_ + 1 t_1,2_ + 1 t_1,3_ + 1 t_1,4_ + 1 t_1,5_ + 1 t_1,6_ + 1 t_1,7_ + 1 t_1,8_ + 1 t_1,9_ + 1 t_1,10_ = 1
c3: -2 t_1,1_ - 1.5555555555555554 t_1,2_ - 1.1111111111111112 t_1,3_ - 0.6666666666666669 t_1,4_ - 0.22222222222222232 t_1,5_ + 0.22222222222222232 t_1,6_ + 0.6666666666666665 t_1,7_ + 1.1111111111111112 t_1,8_ + 1.5555555555555554 t_1,9_ + 2 t_1,10_ - 1 x_1_ = 0
c4: 1 y_2,1_ + 1 y_2,2_ + 1 y_2,3_ + 1 y_2,4_ + 1 y_2,5_ + 1 y_2,6_ + 1 y_2,7_ + 1 y_2,8_ + 1 y_2,9_ = 1
c5: 1 t_2,1_ + 1 t_2,2_ + 1 t_2,3_ + 1 t_2,4_ + 1 t_2,5_ + 1 t_2,6_ + 1 t_2,7_ + 1 t_2,8_ + 1 t_2,9_ + 1 t_2,10_ = 1
c6: -2 t_2,1_ - 1.5555555555555554 t_2,2_ - 1.1111111111111112 t_2,3_ - 0.6666666666666669 t_2,4_ - 0.22222222222222232 t_2,5_ + 0.22222222222222232 t_2,6_ + 0.6666666666666665 t_2,7_ + 1.1111111111111112 t_2,8_ + 1.5555555555555554 t_2,9_ + 2 t_2,10_ - 1 x_2_ = 0
c7: 1 y_3,1_ + 1 y_3,2_ + 1 y_3,3_ + 1 y_3,4_ + 1 y_3,5_ + 1 y_3,6_ + 1 y_3,7_ + 1 y_3,8_ + 1 y_3,9_ = 1
c8: 1 t_3,1_ + 1 t_3,2_ + 1 t_3,3_ + 1 t_3,4_ + 1 t_3,5_ + 1 t_3,6_ + 1 t_3,7_ + 1 t_3,8_ + 1 t_3,9_ + 1 t_3,10_ = 1
c9: -2 t_3,1_ - 1.5555555555555554 t_3,2_ - 1.1111111111111112 t_3,3_ - 0.6666666666666669 t_3,4_ - 0.22222222222222232 t_3,5_ + 0.22222222222222232 t_3,6_ + 0.6666666666666665 t_3,7_ + 1.1111111111111112 t_3,8_ + 1.5555555555555554 t_3,9_ + 2 t_3,10_ - 1 x_3_ = 0
c10: 1 y_4,1_ + 1 y_4,2_ + 1 y_4,3_ + 1 y_4,4_ + 1 y_4,5_ + 1 y_4,6_ + 1 y_4,7_ + 1 y_4,8_ + 1 y_4,9_ = 1
c11: 1 t_4,1_ + 1 t_4,2_ + 1 t_4,3_ + 1 t_4,4_ + 1 t_4,5_ + 1 t_4,6_ + 1 t_4,7_ + 1 t_4,8_ + 1 t_4,9_ + 1 t_4,10_ = 1
c12: -2 t_4,1_ - 1.5555555555555554 t_4,2_ - 1.1111111111111112 t_4,3_ - 0.6666666666666669 t_4,4_ - 0.22222222222222232 t_4,5_ + 0.22222222222222232 t_4,6_ + 0.6666666666666665 t_4,7_ + 1.1111111111111112 t_4,8_ + 1.5555555555555554 t_4,9_ + 2 t_4,10_ - 1 x_4_ = 0
c13: 1 y_5,1_ + 1 y_5,2_ + 1 y_5,3_ + 1 y_5,4_ + 1 y_5,5_ + 1 y_5,6_ + 1 y_5,7_ + 1 y_5,8_ + 1 y_5,9_ = 1
c14: 1 t_5,1_ + 1 t_5,2_ + 1 t_5,3_ + 1 t_5,4_ + 1 t_5,5_ + 1 t_5,6_ + 1 t_5,7_ + 1 t_5,8_ + 1 t_5,9_ + 1 t_5,10_ = 1
c15: -2 t_5,1_ - 1.5555555555555554 t_5,2_ - 1.1111111111111112 t_5,3_ - 0.6666666666666669 t_5,4_ - 0.22222222222222232 t_5,5_ + 0.22222222222222232 t_5,6_ + 0.6666666666666665 t_5,7_ + 1.1111111111111112 t_5,8_ + 1.5555555555555554 t_5,9_ + 2 t_5,10_ - 1 x_5_ = 0
Bounds
x_1_ <= 2
x_2_ <= 2
x_3_ <= 2
x_4_ <= 2
x_5_ <= 2
t_1,1_ >= 0
t_2,1_ >= 0
t_3,1_ >= 0
t_4,1_ >= 0
t_5,1_ >= 0
t_1,2_ >= 0
t_2,2_ >= 0
t_3,2_ >= 0
t_4,2_ >= 0
t_5,2_ >= 0
t_1,3_ >= 0
t_2,3_ >= 0
t_3,3_ >= 0
t_4,3_ >= 0
t_5,3_ >= 0
t_1,4_ >= 0
t_2,4_ >= 0
t_3,4_ >= 0
t_4,4_ >= 0
t_5,4_ >= 0
t_1,5_ >= 0
t_2,5_ >= 0
t_3,5_ >= 0
t_4,5_ >= 0
t_5,5_ >= 0
t_1,6_ >= 0
t_2,6_ >= 0
t_3,6_ >= 0
t_4,6_ >= 0
t_5,6_ >= 0
t_1,7_ >= 0
t_2,7_ >= 0
t_3,7_ >= 0
t_4,7_ >= 0
t_5,7_ >= 0
t_1,8_ >= 0
t_2,8_ >= 0
t_3,8_ >= 0
t_4,8_ >= 0
t_5,8_ >= 0
t_1,9_ >= 0
t_2,9_ >= 0
t_3,9_ >= 0
t_4,9_ >= 0
t_5,9_ >= 0
t_1,10_ >= 0
t_2,10_ >= 0
t_3,10_ >= 0
t_4,10_ >= 0
t_5,10_ >= 0
x_1_ >= -2
x_2_ >= -2
x_3_ >= -2
x_4_ >= -2
x_5_ >= -2
Binary
y_1,1_
y_2,1_
y_3,1_
y_4,1_
y_5,1_
y_1,2_
y_2,2_
y_3,2_
y_4,2_
y_5,2_
y_1,3_
y_2,3_
y_3,3_
y_4,3_
y_5,3_
y_1,4_
y_2,4_
y_3,4_
y_4,4_
y_5,4_
y_1,5_
y_2,5_
y_3,5_
y_4,5_
y_5,5_
y_1,6_
y_2,6_
y_3,6_
y_4,6_
y_5,6_
y_1,7_
y_2,7_
y_3,7_
y_4,7_
y_5,7_
y_1,8_
y_2,8_
y_3,8_
y_4,8_
y_5,8_
y_1,9_
y_2,9_
y_3,9_
y_4,9_
y_5,9_
End
